results_rootrelaxation/bin012_080_007.srr.sol
solution status: optimal solution found
objective value:                                   16
_var719_                            0.914942528735632 	(obj:0)
_var721_                           0.0850574712643679 	(obj:2)
_var735_                             0.05287356321839 	(obj:2)
_var755_                           0.0965517241379312 	(obj:1)
_var759_                             0.24367816091954 	(obj:1)
_var761_                           0.0609195402298839 	(obj:2)
_var771_                              0.2183908045977 	(obj:3)
_var780_                            0.505747126436781 	(obj:1)
_var781_                           0.0609195402298841 	(obj:1)
_var783_                            0.385057471264369 	(obj:1)
_var789_                            0.804597701149425 	(obj:1)
_var797_                            0.179310344827587 	(obj:2)
_var804_                            0.170114942528736 	(obj:2)
_var806_                            0.493103448275861 	(obj:3)
_var812_                           0.0103448275862071 	(obj:2)
_var814_                           0.0747126436781615 	(obj:1)
_var819_                          0.00459770114942587 	(obj:2)
_var821_                            0.781609195402299 	(obj:0)
_var823_                            0.497701149425287 	(obj:1)
_var825_                            0.233333333333334 	(obj:1)
_var826_                           0.0977011494252875 	(obj:2)
_var831_                            0.248275862068965 	(obj:3)
_var835_                            0.332183908045977 	(obj:1)
_var840_                           0.0850574712643682 	(obj:1)
_var853_                            0.419540229885057 	(obj:2)
_var861_                            0.283908045977011 	(obj:3)
_var865_                           0.0413793103448274 	(obj:1)
_var872_                            0.132183908045976 	(obj:2)
_var879_                           0.0655172413793104 	(obj:1)
_var880_                            0.382758620689654 	(obj:0)
_var881_                            0.213793103448276 	(obj:3)
_var883_                          0.00114942528735695 	(obj:3)
_var885_                            0.308045977011494 	(obj:2)
_var889_                            0.144827586206897 	(obj:3)
_var890_                           0.0965517241379312 	(obj:1)
_var896_                            0.322988505747126 	(obj:2)
_var897_                            0.247126436781609 	(obj:3)
_var903_                            0.218390804597701 	(obj:1)
_var908_                           0.0804597701149426 	(obj:0)
_var909_                           0.0965517241379312 	(obj:3)
_var910_                            0.113793103448275 	(obj:2)
_var912_                          0.00459770114942537 	(obj:1)
_var914_                             0.22183908045977 	(obj:1)
_var916_                           0.0126436781609194 	(obj:3)
_var919_                           0.0482758620689661 	(obj:3)
_var920_                           0.0241379310344833 	(obj:3)
_var923_                                          0.3 	(obj:2)
_var924_                           0.0425287356321838 	(obj:1)
_var928_                           0.0252873563218392 	(obj:2)
_var929_                            0.155172413793104 	(obj:2)
_var936_                            0.152873563218391 	(obj:3)
_var940_                           0.0540229885057473 	(obj:3)
_var941_                           0.0896551724137949 	(obj:3)
_var943_                           0.0195402298850575 	(obj:2)
_var945_                           0.0252873563218384 	(obj:2)
_var946_                          0.00114942528735679 	(obj:3)
_var948_                           0.0172413793103449 	(obj:2)
