results_rootrelaxation/bin012_080_007.srr.log
SCIP version 8.0.3.5 [precision: 8 byte] [memory: block] [mode: optimized] [LP solver: Soplex 6.0.1.3] [GitHash: 438792519e]
Copyright (c) 2002-2023 Zuse Institute Berlin (ZIB)

External libraries: 
  Readline 8.1         GNU library for command line editing (gnu.org/s/readline)
  Soplex 6.0.1.3       Linear Programming Solver developed at Zuse Institute Berlin (soplex.zib.de) [GitHash: 713be0fe]
  CppAD 20180000.0     Algorithmic Differentiation of C++ algorithms developed by B. Bell (github.com/coin-or/CppAD)
  ZLIB 1.2.11          General purpose compression library by J. Gailly and M. Adler (zlib.net)
  bliss 0.77           Computing Graph Automorphism Groups by T. Junttila and P. Kaski (www.tcs.hut.fi/Software/bliss/)

user parameter file <scip.set> not found - using default parameters

srr/relaxation = TRUE

read problem <instances/bin012_080_007.srr>
============

Original problem: 
original problem has 0 variables (0 bin, 0 int, 0 impl, 0 cont) and 77 constraints

presolving:
presolving (1 rounds: 1 fast, 1 medium, 1 exhaustive):
 0 deleted vars, 0 deleted constraints, 0 added constraints, 0 tightened bounds, 0 added holes, 0 changed sides, 0 changed coefficients
 0 implications, 0 cliques
presolved problem has 0 variables (0 bin, 0 int, 0 impl, 0 cont) and 77 constraints
     77 constraints of type <linear>
Presolving Time: 0.00

 time | node  | left  |LP iter|LP it/n|mem/heur|mdpt |vars |cons |rows |cuts |sepa|confs|strbr|  dualbound   | primalbound  |  gap   | compl. 
  0.0s|     1 |     0 |     1 |     - |   710k |   0 |   1 |  77 |  77 |   0 |  0 |   0 |   0 |      --      |      --      |    Inf | unknown
r 0.1s|     1 |     0 |  1157 |     - |simplero|   0 | 708 |  77 |  77 |   0 |  0 |   0 |   0 |      --      | 3.501145e+01 |    Inf | unknown
r 0.1s|     1 |     0 |  1181 |     - |simplero|   0 | 719 |  77 |  77 |   0 |  0 |   0 |   0 |      --      | 3.409596e+01 |    Inf | unknown
r 0.1s|     1 |     0 |  1229 |     - |simplero|   0 | 730 |  77 |  77 |   0 |  0 |   0 |   0 |      --      | 3.095961e+01 |    Inf | unknown
r 0.1s|     1 |     0 |  1285 |     - |simplero|   0 | 741 |  77 |  77 |   0 |  0 |   0 |   0 |      --      | 2.968470e+01 |    Inf | unknown
r 0.1s|     1 |     0 |  1344 |     - |simplero|   0 | 752 |  77 |  77 |   0 |  0 |   0 |   0 |      --      | 2.785461e+01 |    Inf | unknown
r 0.1s|     1 |     0 |  1406 |     - |simplero|   0 | 763 |  77 |  77 |   0 |  0 |   0 |   0 |      --      | 2.643009e+01 |    Inf | unknown
r 0.1s|     1 |     0 |  1436 |     - |simplero|   0 | 774 |  77 |  77 |   0 |  0 |   0 |   0 |      --      | 2.590571e+01 |    Inf | unknown
r 0.1s|     1 |     0 |  1465 |     - |simplero|   0 | 774 |  77 |  77 |   0 |  0 |   0 |   0 |      --      | 2.540997e+01 |    Inf | unknown
r 0.1s|     1 |     0 |  1468 |     - |simplero|   0 | 774 |  77 |  77 |   0 |  0 |   0 |   0 |      --      | 2.539796e+01 |    Inf | unknown
r 0.1s|     1 |     0 |  1515 |     - |simplero|   0 | 785 |  77 |  77 |   0 |  0 |   0 |   0 |      --      | 2.393111e+01 |    Inf | unknown
r 0.1s|     1 |     0 |  1528 |     - |simplero|   0 | 785 |  77 |  77 |   0 |  0 |   0 |   0 |      --      | 2.382768e+01 |    Inf | unknown
r 0.1s|     1 |     0 |  1533 |     - |simplero|   0 | 785 |  77 |  77 |   0 |  0 |   0 |   0 |      --      | 2.381286e+01 |    Inf | unknown
r 0.1s|     1 |     0 |  1573 |     - |simplero|   0 | 796 |  77 |  77 |   0 |  0 |   0 |   0 |      --      | 2.278865e+01 |    Inf | unknown
r 0.1s|     1 |     0 |  1588 |     - |simplero|   0 | 796 |  77 |  77 |   0 |  0 |   0 |   0 |      --      | 2.265230e+01 |    Inf | unknown
 time | node  | left  |LP iter|LP it/n|mem/heur|mdpt |vars |cons |rows |cuts |sepa|confs|strbr|  dualbound   | primalbound  |  gap   | compl. 
r 0.1s|     1 |     0 |  1600 |     - |simplero|   0 | 796 |  77 |  77 |   0 |  0 |   0 |   0 |      --      | 2.259803e+01 |    Inf | unknown
r 0.1s|     1 |     0 |  1605 |     - |simplero|   0 | 796 |  77 |  77 |   0 |  0 |   0 |   0 |      --      | 2.259617e+01 |    Inf | unknown
r 0.1s|     1 |     0 |  1671 |     - |simplero|   0 | 807 |  77 |  77 |   0 |  0 |   0 |   0 |      --      | 2.136030e+01 |    Inf | unknown
r 0.1s|     1 |     0 |  1687 |     - |simplero|   0 | 807 |  77 |  77 |   0 |  0 |   0 |   0 |      --      | 2.126382e+01 |    Inf | unknown
r 0.1s|     1 |     0 |  1727 |     - |simplero|   0 | 818 |  77 |  77 |   0 |  0 |   0 |   0 |      --      | 2.025236e+01 |    Inf | unknown
r 0.1s|     1 |     0 |  1743 |     - |simplero|   0 | 818 |  77 |  77 |   0 |  0 |   0 |   0 |      --      | 2.014632e+01 |    Inf | unknown
r 0.1s|     1 |     0 |  1780 |     - |simplero|   0 | 829 |  77 |  77 |   0 |  0 |   0 |   0 |      --      | 1.925899e+01 |    Inf | unknown
r 0.1s|     1 |     0 |  1804 |     - |simplero|   0 | 829 |  77 |  77 |   0 |  0 |   0 |   0 |      --      | 1.891760e+01 |    Inf | unknown
r 0.1s|     1 |     0 |  1811 |     - |simplero|   0 | 829 |  77 |  77 |   0 |  0 |   0 |   0 |      --      | 1.891085e+01 |    Inf | unknown
r 0.1s|     1 |     0 |  1813 |     - |simplero|   0 | 829 |  77 |  77 |   0 |  0 |   0 |   0 |      --      | 1.891037e+01 |    Inf | unknown
r 0.1s|     1 |     0 |  1863 |     - |simplero|   0 | 840 |  77 |  77 |   0 |  0 |   0 |   0 |      --      | 1.801908e+01 |    Inf | unknown
r 0.1s|     1 |     0 |  1877 |     - |simplero|   0 | 840 |  77 |  77 |   0 |  0 |   0 |   0 |      --      | 1.792465e+01 |    Inf | unknown
r 0.1s|     1 |     0 |  1888 |     - |simplero|   0 | 840 |  77 |  77 |   0 |  0 |   0 |   0 |      --      | 1.789596e+01 |    Inf | unknown
r 0.1s|     1 |     0 |  1889 |     - |simplero|   0 | 840 |  77 |  77 |   0 |  0 |   0 |   0 |      --      | 1.789592e+01 |    Inf | unknown
  0.1s|     1 |     0 |  1923 |     - |  4224k |   0 | 851 |  77 |  77 |   0 |  0 |   0 |   0 |      --      | 1.789592e+01 |    Inf | unknown
 time | node  | left  |LP iter|LP it/n|mem/heur|mdpt |vars |cons |rows |cuts |sepa|confs|strbr|  dualbound   | primalbound  |  gap   | compl. 
r 0.1s|     1 |     0 |  1923 |     - |simplero|   0 | 851 |  77 |  77 |   0 |  0 |   0 |   0 |      --      | 1.750166e+01 |    Inf | unknown
r 0.1s|     1 |     0 |  1935 |     - |simplero|   0 | 851 |  77 |  77 |   0 |  0 |   0 |   0 |      --      | 1.743161e+01 |    Inf | unknown
r 0.1s|     1 |     0 |  1966 |     - |simplero|   0 | 862 |  77 |  77 |   0 |  0 |   0 |   0 |      --      | 1.720663e+01 |    Inf | unknown
r 0.1s|     1 |     0 |  1976 |     - |simplero|   0 | 862 |  77 |  77 |   0 |  0 |   0 |   0 |      --      | 1.719923e+01 |    Inf | unknown
r 0.1s|     1 |     0 |  2015 |     - |simplero|   0 | 873 |  77 |  77 |   0 |  0 |   0 |   0 |      --      | 1.700439e+01 |    Inf | unknown
r 0.1s|     1 |     0 |  2023 |     - |simplero|   0 | 873 |  77 |  77 |   0 |  0 |   0 |   0 |      --      | 1.699341e+01 |    Inf | unknown
r 0.1s|     1 |     0 |  2026 |     - |simplero|   0 | 873 |  77 |  77 |   0 |  0 |   0 |   0 |      --      | 1.699118e+01 |    Inf | unknown
r 0.1s|     1 |     0 |  2038 |     - |simplero|   0 | 884 |  77 |  77 |   0 |  0 |   0 |   0 |      --      | 1.689855e+01 |    Inf | unknown
r 0.1s|     1 |     0 |  2063 |     - |simplero|   0 | 884 |  77 |  77 |   0 |  0 |   0 |   0 |      --      | 1.680064e+01 |    Inf | unknown
r 0.1s|     1 |     0 |  2067 |     - |simplero|   0 | 884 |  77 |  77 |   0 |  0 |   0 |   0 |      --      | 1.680033e+01 |    Inf | unknown
r 0.1s|     1 |     0 |  2110 |     - |simplero|   0 | 895 |  77 |  77 |   0 |  0 |   0 |   0 |      --      | 1.648155e+01 |    Inf | unknown
r 0.1s|     1 |     0 |  2119 |     - |simplero|   0 | 895 |  77 |  77 |   0 |  0 |   0 |   0 |      --      | 1.646612e+01 |    Inf | unknown
r 0.1s|     1 |     0 |  2123 |     - |simplero|   0 | 895 |  77 |  77 |   0 |  0 |   0 |   0 |      --      | 1.646423e+01 |    Inf | unknown
r 0.1s|     1 |     0 |  2142 |     - |simplero|   0 | 905 |  77 |  77 |   0 |  0 |   0 |   0 |      --      | 1.636387e+01 |    Inf | unknown
r 0.1s|     1 |     0 |  2170 |     - |simplero|   0 | 905 |  77 |  77 |   0 |  0 |   0 |   0 |      --      | 1.627441e+01 |    Inf | unknown
 time | node  | left  |LP iter|LP it/n|mem/heur|mdpt |vars |cons |rows |cuts |sepa|confs|strbr|  dualbound   | primalbound  |  gap   | compl. 
r 0.1s|     1 |     0 |  2182 |     - |simplero|   0 | 905 |  77 |  77 |   0 |  0 |   0 |   0 |      --      | 1.626847e+01 |    Inf | unknown
r 0.1s|     1 |     0 |  2204 |     - |simplero|   0 | 915 |  77 |  77 |   0 |  0 |   0 |   0 |      --      | 1.615094e+01 |    Inf | unknown
r 0.1s|     1 |     0 |  2209 |     - |simplero|   0 | 915 |  77 |  77 |   0 |  0 |   0 |   0 |      --      | 1.614706e+01 |    Inf | unknown
r 0.1s|     1 |     0 |  2225 |     - |simplero|   0 | 926 |  77 |  77 |   0 |  0 |   0 |   0 |      --      | 1.608000e+01 |    Inf | unknown
r 0.1s|     1 |     0 |  2247 |     - |simplero|   0 | 935 |  77 |  77 |   0 |  0 |   0 |   0 |      --      | 1.604545e+01 |    Inf | unknown
r 0.1s|     1 |     0 |  2250 |     - |simplero|   0 | 935 |  77 |  77 |   0 |  0 |   0 |   0 |      --      | 1.604521e+01 |    Inf | unknown
r 0.1s|     1 |     0 |  2273 |     - |simplero|   0 | 942 |  77 |  77 |   0 |  0 |   0 |   0 |      --      | 1.600926e+01 |    Inf | unknown
r 0.1s|     1 |     0 |  2276 |     - |simplero|   0 | 942 |  77 |  77 |   0 |  0 |   0 |   0 |      --      | 1.600801e+01 |    Inf | unknown
r 0.1s|     1 |     0 |  2287 |     - |simplero|   0 | 950 |  77 |  77 |   0 |  0 |   0 |   0 |      --      | 1.600000e+01 |    Inf | unknown
  0.1s|     1 |     0 |  2287 |     - |  4760k |   0 | 950 |  77 |  77 |   0 |  0 |   0 |   0 | 1.600000e+01 | 1.600000e+01 |   0.00%| unknown
  0.1s|     1 |     0 |  2287 |     - |  4760k |   0 | 950 |  77 |  77 |   0 |  0 |   0 |   0 | 1.600000e+01 | 1.600000e+01 |   0.00%| unknown

SCIP Status        : problem is solved [optimal solution found]
Solving Time (sec) : 0.11
Solving Nodes      : 1
Primal Bound       : +1.60000000000000e+01 (52 solutions)
Dual Bound         : +1.60000000000000e+01
Gap                : 0.00 %

written transformed problem to file <results_rootrelaxation/bin012_080_007.srr.lp>
written transformed problem to file <results_rootrelaxation/bin012_080_007.srr.cip>

written solution information to file <results_rootrelaxation/bin012_080_007.srr.sol>



